/*********************************************
 * OPL 12.6.0.0 Data
 * Author: Adrian Rodriguez Bazaga, Pau Rodriguez Esmerats
 * Creation Date: 06/12/2017 at 23:03:08
 *********************************************/

nNurses=257;
maxConsec=2;
maxPresence=7;
maxHours=5;
minHours=1;
hours=24;
demand= [40 40 58 58 40 58 58 43 40 26 4 10 8 13 9 10 7 5 5 3 39 79 41 58  ];
